<number of tasks>
50

<cycle time>
1000

<order strength>
0.595


<task times>
1 178
2 53
3 116
4 403
5 64
6 303
7 90
8 60
9 154
10 496
11 202
12 295
13 64
14 65
15 277
16 344
17 214
18 390
19 138
20 188
21 130
22 24
23 41
24 102
25 127
26 53
27 173
28 514
29 37
30 497
31 426
32 229
33 516
34 90
35 66
36 269
37 333
38 504
39 49
40 173
41 120
42 565
43 128
44 228
45 189
46 242
47 100
48 366
49 74
50 476

<precedence relations>
1,3
1,4
1,5
2,4
2,5
3,6
4,7
4,8
5,7
6,13
7,9
7,11
7,12
7,13
7,14
7,15
8,10
8,12
8,13
8,14
8,15
9,17
10,18
11,20
12,16
12,19
12,21
12,22
13,21
13,22
14,21
14,22
15,21
15,22
16,23
17,25
18,26
19,24
20,25
21,25
21,26
21,27
21,28
22,25
22,26
22,27
22,28
23,29
24,30
25,31
25,32
26,31
26,32
27,31
27,32
28,31
28,32
29,33
30,35
31,34
31,35
32,34
32,35
33,37
34,36
34,38
34,39
35,38
35,39
36,42
37,40
38,41
38,43
38,45
39,43
39,44
39,46
40,47
41,48
42,49
43,50
45,50

<end>
